3549.32
0 3 9 7 8 13 5 1 66 2 4 6 0
0 15 19 14 11 10 18 22 105 16 12 17 0
0 25 145 24 116 23 190 28 21 20 29 30 27 26 0
0 36 37 59 34 35 38 31 39 32 49 41 33 0
0 43 42 47 48 154 45 46 52 50 40 44 53 0
0 56 57 51 58 64 62 55 60 54 61 0
0 65 123 70 78 69 71 75 72 73 63 74 67 68 0
0 80 77 85 84 83 79 88 82 89 92 76 81 87 86 0
0 102 99 98 103 94 101 93 91 90 135 106 97 100 95 96 0
0 111 108 109 110 118 107 117 159 104 115 113 114 112 0
0 132 134 119 129 130 191 121 122 124 128 125 120 127 126 0
0 144 146 131 133 138 155 140 137 143 136 141 142 139 149 0
0 147 148 162 150 168 151 160 158 156 153 152 157 0
0 172 173 171 166 167 177 170 164 165 163 161 169 0
0 180 178 176 175 179 174 184 183 182 181 187 188 0
0 186 197 199 185 192 196 198 195 193 194 189 0
0 0
